\ This file has been generated by DOcplex
\ ENCODING=ISO-8859-1
\Problem name: random_problem.lp

Minimize
 obj: - 78 x0 - 39 x1 - 852 x2 - 426 x3 + 356 x4 + 178 x5 - 106 x6 - 53 x7
      - 616 x8 - 308 x9 - 590 x10 - 295 x11 + 280 x12 + 140 x13 + 252 x14
      + 126 x15 - 104 x16 - 52 x17 + 42 x18 + 21 x19 - 310 x20 - 155 x21
      + 328 x22 + 164 x23 + [ 432 x0^2 + 432 x0*x1 + 736 x0*x2 + 368 x0*x3
      + 608 x0*x4 + 304 x0*x5 + 304 x0*x6 + 152 x0*x7 + 544 x0*x8 + 272 x0*x9
      + 496 x0*x10 + 248 x0*x11 + 512 x0*x12 + 256 x0*x13 + 608 x0*x14
      + 304 x0*x15 + 1280 x0*x16 + 640 x0*x17 + 928 x0*x18 + 464 x0*x19
      + 496 x0*x20 + 248 x0*x21 + 256 x0*x22 + 128 x0*x23 + 108 x1^2 + 368 x1*x2
      + 184 x1*x3 + 304 x1*x4 + 152 x1*x5 + 152 x1*x6 + 76 x1*x7 + 272 x1*x8
      + 136 x1*x9 + 248 x1*x10 + 124 x1*x11 + 256 x1*x12 + 128 x1*x13
      + 304 x1*x14 + 152 x1*x15 + 640 x1*x16 + 320 x1*x17 + 464 x1*x18
      + 232 x1*x19 + 248 x1*x20 + 124 x1*x21 + 128 x1*x22 + 64 x1*x23
      + 1320 x2^2 + 1320 x2*x3 + 1696 x2*x4 + 848 x2*x5 + 256 x2*x6 + 128 x2*x7
      + 624 x2*x8 + 312 x2*x9 + 464 x2*x10 + 232 x2*x11 + 992 x2*x12
      + 496 x2*x13 + 272 x2*x14 + 136 x2*x15 + 944 x2*x16 + 472 x2*x17
      + 1184 x2*x18 + 592 x2*x19 + 480 x2*x20 + 240 x2*x21 + 1008 x2*x22
      + 504 x2*x23 + 330 x3^2 + 848 x3*x4 + 424 x3*x5 + 128 x3*x6 + 64 x3*x7
      + 312 x3*x8 + 156 x3*x9 + 232 x3*x10 + 116 x3*x11 + 496 x3*x12
      + 248 x3*x13 + 136 x3*x14 + 68 x3*x15 + 472 x3*x16 + 236 x3*x17
      + 592 x3*x18 + 296 x3*x19 + 240 x3*x20 + 120 x3*x21 + 504 x3*x22
      + 252 x3*x23 + 2656 x4^2 + 2656 x4*x5 - 176 x4*x6 - 88 x4*x7 + 1632 x4*x8
      + 816 x4*x9 + 224 x4*x10 + 112 x4*x11 + 1056 x4*x12 + 528 x4*x13
      + 368 x4*x14 + 184 x4*x15 + 288 x4*x16 + 144 x4*x17 + 1456 x4*x18
      + 728 x4*x19 + 960 x4*x20 + 480 x4*x21 + 2288 x4*x22 + 1144 x4*x23
      + 664 x5^2 - 88 x5*x6 - 44 x5*x7 + 816 x5*x8 + 408 x5*x9 + 112 x5*x10
      + 56 x5*x11 + 528 x5*x12 + 264 x5*x13 + 184 x5*x14 + 92 x5*x15
      + 144 x5*x16 + 72 x5*x17 + 728 x5*x18 + 364 x5*x19 + 480 x5*x20
      + 240 x5*x21 + 1144 x5*x22 + 572 x5*x23 + 344 x6^2 + 344 x6*x7 + 432 x6*x8
      + 216 x6*x9 + 336 x6*x10 + 168 x6*x11 + 368 x6*x12 + 184 x6*x13
      + 256 x6*x14 + 128 x6*x15 + 208 x6*x16 + 104 x6*x17 + 416 x6*x18
      + 208 x6*x19 + 672 x6*x20 + 336 x6*x21 - 272 x6*x22 - 136 x6*x23 + 86 x7^2
      + 216 x7*x8 + 108 x7*x9 + 168 x7*x10 + 84 x7*x11 + 184 x7*x12 + 92 x7*x13
      + 128 x7*x14 + 64 x7*x15 + 104 x7*x16 + 52 x7*x17 + 208 x7*x18
      + 104 x7*x19 + 336 x7*x20 + 168 x7*x21 - 136 x7*x22 - 68 x7*x23 + 992 x8^2
      + 992 x8*x9 + 736 x8*x10 + 368 x8*x11 + 736 x8*x12 + 368 x8*x13
      + 320 x8*x14 + 160 x8*x15 + 992 x8*x16 + 496 x8*x17 + 976 x8*x18
      + 488 x8*x19 + 1056 x8*x20 + 528 x8*x21 + 432 x8*x22 + 216 x8*x23
      + 248 x9^2 + 368 x9*x10 + 184 x9*x11 + 368 x9*x12 + 184 x9*x13
      + 160 x9*x14 + 80 x9*x15 + 496 x9*x16 + 248 x9*x17 + 488 x9*x18
      + 244 x9*x19 + 528 x9*x20 + 264 x9*x21 + 216 x9*x22 + 108 x9*x23
      + 392 x10^2 + 392 x10*x11 + 512 x10*x12 + 256 x10*x13 + 288 x10*x14
      + 144 x10*x15 + 720 x10*x16 + 360 x10*x17 + 608 x10*x18 + 304 x10*x19
      + 464 x10*x20 + 232 x10*x21 - 96 x10*x22 - 48 x10*x23 + 98 x11^2
      + 256 x11*x12 + 128 x11*x13 + 144 x11*x14 + 72 x11*x15 + 360 x11*x16
      + 180 x11*x17 + 304 x11*x18 + 152 x11*x19 + 232 x11*x20 + 116 x11*x21
      - 48 x11*x22 - 24 x11*x23 + 536 x12^2 + 536 x12*x13 + 192 x12*x14
      + 96 x12*x15 + 304 x12*x16 + 152 x12*x17 + 1120 x12*x18 + 560 x12*x19
      + 704 x12*x20 + 352 x12*x21 + 480 x12*x22 + 240 x12*x23 + 134 x13^2
      + 96 x13*x14 + 48 x13*x15 + 152 x13*x16 + 76 x13*x17 + 560 x13*x18
      + 280 x13*x19 + 352 x13*x20 + 176 x13*x21 + 240 x13*x22 + 120 x13*x23
      + 536 x14^2 + 536 x14*x15 + 1664 x14*x16 + 832 x14*x17 + 592 x14*x18
      + 296 x14*x19 + 352 x14*x20 + 176 x14*x21 + 304 x14*x22 + 152 x14*x23
      + 134 x15^2 + 832 x15*x16 + 416 x15*x17 + 296 x15*x18 + 148 x15*x19
      + 176 x15*x20 + 88 x15*x21 + 152 x15*x22 + 76 x15*x23 + 2608 x16^2
      + 2608 x16*x17 + 1648 x16*x18 + 824 x16*x19 + 352 x16*x20 + 176 x16*x21
      + 304 x16*x22 + 152 x16*x23 + 652 x17^2 + 824 x17*x18 + 412 x17*x19
      + 176 x17*x20 + 88 x17*x21 + 152 x17*x22 + 76 x17*x23 + 1016 x18^2
      + 1016 x18*x19 + 1072 x18*x20 + 536 x18*x21 + 656 x18*x22 + 328 x18*x23
      + 254 x19^2 + 536 x19*x20 + 268 x19*x21 + 328 x19*x22 + 164 x19*x23
      + 664 x20^2 + 664 x20*x21 + 80 x20*x22 + 40 x20*x23 + 166 x21^2
      + 40 x21*x22 + 20 x21*x23 + 1128 x22^2 + 1128 x22*x23 + 282 x23^2 ]/2
Subject To
 c0: 2 x0 + x1 + 2 x2 + x3 + 2 x4 + x5 + 2 x6 + x7 + 2 x8 + x9 + 2 x10 + x11
     + 2 x12 + x13 + 2 x14 + x15 + 2 x16 + x17 + 2 x18 + x19 + 2 x20 + x21
     + 2 x22 + x23 = 3

Bounds
 0 <= x0 <= 1
 0 <= x1 <= 1
 0 <= x2 <= 1
 0 <= x3 <= 1
 0 <= x4 <= 1
 0 <= x5 <= 1
 0 <= x6 <= 1
 0 <= x7 <= 1
 0 <= x8 <= 1
 0 <= x9 <= 1
 0 <= x10 <= 1
 0 <= x11 <= 1
 0 <= x12 <= 1
 0 <= x13 <= 1
 0 <= x14 <= 1
 0 <= x15 <= 1
 0 <= x16 <= 1
 0 <= x17 <= 1
 0 <= x18 <= 1
 0 <= x19 <= 1
 0 <= x20 <= 1
 0 <= x21 <= 1
 0 <= x22 <= 1
 0 <= x23 <= 1

Binaries
 x0 x1 x2 x3 x4 x5 x6 x7 x8 x9 x10 x11 x12 x13 x14 x15 x16 x17 x18 x19 x20 x21
 x22 x23
End
